!RHF ZINDO/S TightSCF DIIS NoRICO NoMOPrint
%cis NRoots 10
MaxDim 25
triplets true
end

* xyz 0 1
N -1.83801 -2.05332 0.59653
C -2.36617 -0.85278 0.11971
C -3.76124 -0.72451 -0.02945
C -4.30270 0.47695 -0.46278
C -3.47602 1.55992 -0.76624
C -2.09799 1.43894 -0.62205
C -1.52651 0.24798 -0.16530
C -0.08640 0.17547 -0.00920
N 0.77423 0.64230 -0.98832
C 2.03448 0.45120 -0.53727
N 1.98609 -0.15438 0.75495
C 0.64693 -0.32068 1.08576
C 3.13281 -0.45958 1.45271
C 4.34756 -0.16597 0.88599
C 4.43126 0.44002 -0.40033
C 3.30048 0.74344 -1.10733
H -0.85878 -2.21100 0.45403
H -2.40772 -2.87282 0.54104
H -4.40721 -1.56519 0.19949
H -5.38292 0.57380 -0.57258
H -3.90627 2.49212 -1.11731
H -1.44254 2.27797 -0.87130
H 0.30667 -0.71734 2.01753
H 3.01862 -0.92364 2.43423
H 5.26879 -0.39409 1.41957
H 5.41849 0.65763 -0.80768
H 3.31996 1.20606 -2.09492
*