!RHF ZINDO/S TightSCF DIIS NoRICO NoMOPrint
%cis NRoots 10
MaxDim 25
triplets true
end

* xyz 0 1
C 1.72054 0.80896 -0.14802
C 1.82358 -0.56519 0.12247
C 0.70036 -1.37499 0.27512
C -0.54016 -0.76179 0.14694
C -0.62133 0.63327 -0.12802
C 0.48673 1.44515 -0.28046
O -1.95526 0.97840 -0.20520
C -2.64410 -0.22171 0.02592
N -1.86421 -1.24972 0.23371
H 2.63450 1.39431 -0.25799
H 2.81523 -1.00852 0.21519
H 0.77730 -2.44011 0.48466
H 0.40117 2.50672 -0.48957
H -3.71237 -0.12463 -0.00106
*